--- Job ProductMixA.gms Start 04/25/20 11:11:03 30.3.0 rc5da09e WEX-WEI x86 64bit/MS Windows
--- GAMS Parameters defined
    Input C:\aguadix\GITHUB\SOC\1 Linear programming (LP)\1 ProductMix\ProductMixA\ProductMixA.gms
    PageSize 0
    ScrDir C:\aguadix\GITHUB\SOC\1 Linear programming (LP)\1 ProductMix\ProductMixA\225a\
    SysDir C:\GAMS\win64\30.3\
    LogOption 3
    ErrMsg 1
    ErrorLog 99
    IDE 1
    LstTitleLeftAligned 1
GAMS 30.3.0   Copyright (C) 1987-2020 GAMS Development. All rights reserved
Licensee: GAMS Demo license for ANTONIO MARIA GUADIX ESCOG200420|0002CO-GEN
          UNIVERSITY OF GRANADA, Spain                             DL007289
          aguadix@ugr.es, ANTONIO MARIA GUADIX ESCOBAR                     
          Demo license for demonstration and instructional purposes only
--- Starting compilation
--- ProductMixA.gms(29) 2 Mb
--- Starting execution: elapsed 0:00:00.015
--- Generating LP model ProductMixA
--- ProductMixA.gms(29) 3 Mb
---   4 rows  3 columns  9 non-zeroes
--- Executing CPLEX: elapsed 0:00:00.031

IBM ILOG CPLEX   30.3.0 rc5da09e Released Mar 06, 2020 WEI x86 64bit/MS Window
*** This solver runs with a demo license. No commercial use.
Cplex 12.10.0.0

Reading data...
Starting Cplex...
Space for names approximately 0.00 Mb
Use option 'names no' to turn use of names off
Version identifier: 12.10.0.0 | 2019-11-26 | 843d4de2ae
CPXPARAM_Advance                                 0
CPXPARAM_Simplex_Display                         2
CPXPARAM_Threads                                 1
CPXPARAM_Parallel                                1
CPXPARAM_Simplex_Limits_Iterations               2000000000
CPXPARAM_TimeLimit                               1000
CPXPARAM_Tune_TimeLimit                          200
Tried aggregator 1 time.
LP Presolve eliminated 1 rows and 1 columns.
Reduced LP has 3 rows, 2 columns, and 6 nonzeros.
Presolve time = 0.00 sec. (0.00 ticks)

Iteration      Dual Objective            In Variable           Out Variable
     1  I            0.000000                     x2              RD3 slack
     2              38.352941                     x1              RD2 slack
LP status(1): optimal
Cplex Time: 0.00sec (det. 0.01 ticks)

Optimal solution found.
Objective :          38.352941

--- Restarting execution
--- ProductMixA.gms(29) 2 Mb
--- Reading solution for model ProductMixA
*** Status: Normal completion
--- Job ProductMixA.gms Stop 04/25/20 11:11:03 elapsed 0:00:00.277
